p edge 30 50
v 1 3
v 2 3
v 3 1
v 4 4
v 5 5
v 6 4
v 7 3
v 8 5
v 9 7
v 10 3
v 11 10
v 12 2
v 13 3
v 14 5
v 15 9
v 16 1
v 17 2
v 18 5
v 19 7
v 20 10
v 21 1
v 22 4
v 23 3
v 24 3
v 25 4
v 26 7
v 27 8
v 28 5
v 29 8
v 30 8
e 1 2
e 1 3
e 2 3
e 2 23
e 2 30
e 3 23
e 3 25
e 3 30
e 4 6
e 4 7
e 4 12
e 4 18
e 4 27
e 5 15
e 5 21
e 6 7
e 6 12
e 6 18
e 6 27
e 7 12
e 7 18
e 7 27
e 8 13
e 8 21
e 8 29
e 9 10
e 11 22
e 11 24
e 12 18
e 12 27
e 13 17
e 13 29
e 14 19
e 14 20
e 14 24
e 14 25
e 14 26
e 15 21
e 16 28
e 17 29
e 18 27
e 19 20
e 20 25
e 20 30
e 22 28
e 23 24
e 23 25
e 23 30
e 24 25
e 25 30
